NAME: instance_2340
TYPE: TSP
DIMENSION: 20
EDGE_WEIGHT_TYPE: EUC_2D
NODE_COORD_SECTION
0 52.15 56.89
1 4.70 91.86
2 53.98 28.73
3 14.79 72.35
4 40.83 8.40
5 22.05 10.74
6 57.14 97.10
7 70.27 45.23
8 97.63 52.55
9 69.67 6.52
10 95.11 23.09
11 3.26 32.75
12 72.61 73.74
13 86.35 87.53
14 84.44 69.58
15 99.28 85.89
16 40.98 58.09
17 58.74 92.88
18 74.52 30.99
19 28.38 96.01
EOF
